p tw 144 26641 2 
1 74 
1 76 
1 78 
1 79 
1 82 
1 83 
1 85 
1 87 
1 89 
1 92 
1 93 
1 96 
1 97 
1 100 
1 102 
1 103 
1 105 
1 108 
1 109 
1 112 
1 114 
1 115 
1 117 
1 119 
1 121 
1 123 
1 126 
1 128 
1 129 
1 132 
1 133 
1 135 
1 138 
1 140 
1 142 
1 143 
2 73 
2 75 
2 77 
2 80 
2 81 
2 84 
2 86 
2 88 
2 90 
2 91 
2 94 
2 95 
2 98 
2 99 
2 101 
2 104 
2 106 
2 107 
2 110 
2 111 
2 113 
2 116 
2 118 
2 120 
2 122 
2 124 
2 125 
2 127 
2 130 
2 131 
2 134 
2 136 
2 137 
2 139 
2 141 
2 144 
3 4 
3 73 
3 76 
3 78 
3 79 
3 81 
3 83 
3 85 
3 88 
3 90 
3 92 
3 94 
3 95 
3 98 
3 100 
3 102 
3 103 
3 105 
3 108 
3 109 
3 111 
3 113 
3 115 
3 118 
3 119 
3 122 
3 123 
3 125 
3 127 
3 130 
3 132 
3 134 
3 136 
3 138 
3 139 
3 141 
3 143 
4 74 
4 75 
4 77 
4 80 
4 82 
4 84 
4 86 
4 87 
4 89 
4 91 
4 93 
4 96 
4 97 
4 99 
4 101 
4 104 
4 106 
4 107 
4 110 
4 112 
4 114 
4 116 
4 117 
4 120 
4 121 
4 124 
4 126 
4 128 
4 129 
4 131 
4 133 
4 135 
4 137 
4 140 
4 142 
4 144 
5 6 
5 74 
5 76 
5 77 
5 80 
5 81 
5 83 
5 86 
5 87 
5 89 
5 91 
5 93 
5 95 
5 97 
5 100 
5 101 
5 103 
5 105 
5 107 
5 109 
5 111 
5 113 
5 115 
5 117 
5 120 
5 122 
5 124 
5 125 
5 127 
5 129 
5 132 
5 133 
5 136 
5 137 
5 140 
5 141 
5 143 
6 73 
6 75 
6 78 
6 79 
6 82 
6 84 
6 85 
6 88 
6 90 
6 92 
6 94 
6 96 
6 98 
6 99 
6 102 
6 104 
6 106 
6 108 
6 110 
6 112 
6 114 
6 116 
6 118 
6 119 
6 121 
6 123 
6 126 
6 128 
6 130 
6 131 
6 134 
6 135 
6 138 
6 139 
6 142 
6 144 
7 8 
7 74 
7 75 
7 77 
7 80 
7 82 
7 83 
7 85 
7 88 
7 89 
7 92 
7 94 
7 95 
7 98 
7 100 
7 101 
7 104 
7 105 
7 107 
7 110 
7 111 
7 114 
7 116 
7 117 
7 119 
7 121 
7 124 
7 126 
7 128 
7 130 
7 132 
7 133 
7 136 
7 138 
7 139 
7 141 
7 143 
8 73 
8 76 
8 78 
8 79 
8 81 
8 84 
8 86 
8 87 
8 90 
8 91 
8 93 
8 96 
8 97 
8 99 
8 102 
8 103 
8 106 
8 108 
8 109 
8 112 
8 113 
8 115 
8 118 
8 120 
8 122 
8 123 
8 125 
8 127 
8 129 
8 131 
8 134 
8 135 
8 137 
8 140 
8 142 
8 144 
9 10 
9 73 
9 76 
9 78 
9 80 
9 82 
9 83 
9 86 
9 88 
9 89 
9 91 
9 93 
9 96 
9 97 
9 100 
9 101 
9 103 
9 105 
9 108 
9 110 
9 111 
9 113 
9 116 
9 118 
9 119 
9 121 
9 124 
9 125 
9 128 
9 130 
9 131 
9 134 
9 135 
9 138 
9 140 
9 141 
9 144 
10 74 
10 75 
10 77 
10 79 
10 81 
10 84 
10 85 
10 87 
10 90 
10 92 
10 94 
10 95 
10 98 
10 99 
10 102 
10 104 
10 106 
10 107 
10 109 
10 112 
10 114 
10 115 
10 117 
10 120 
10 122 
10 123 
10 126 
10 127 
10 129 
10 132 
10 133 
10 136 
10 137 
10 139 
10 142 
10 143 
11 12 
11 74 
11 75 
11 78 
11 79 
11 81 
11 84 
11 85 
11 88 
11 89 
11 92 
11 93 
11 96 
11 97 
11 100 
11 101 
11 103 
11 105 
11 107 
11 110 
11 111 
11 114 
11 116 
11 117 
11 120 
11 122 
11 123 
11 125 
11 127 
11 129 
11 131 
11 134 
11 136 
11 138 
11 139 
11 142 
11 144 
12 73 
12 76 
12 77 
12 80 
12 82 
12 83 
12 86 
12 87 
12 90 
12 91 
12 94 
12 95 
12 98 
12 99 
12 102 
12 104 
12 106 
12 108 
12 109 
12 112 
12 113 
12 115 
12 118 
12 119 
12 121 
12 124 
12 126 
12 128 
12 130 
12 132 
12 133 
12 135 
12 137 
12 140 
12 141 
12 143 
13 14 
13 73 
13 76 
13 78 
13 80 
13 82 
13 84 
13 85 
13 88 
13 89 
13 91 
13 94 
13 95 
13 97 
13 100 
13 102 
13 104 
13 106 
13 107 
13 109 
13 112 
13 113 
13 116 
13 117 
13 120 
13 121 
13 124 
13 125 
13 127 
13 129 
13 132 
13 134 
13 135 
13 138 
13 139 
13 142 
13 143 
14 74 
14 75 
14 77 
14 79 
14 81 
14 83 
14 86 
14 87 
14 90 
14 92 
14 93 
14 96 
14 98 
14 99 
14 101 
14 103 
14 105 
14 108 
14 110 
14 111 
14 114 
14 115 
14 118 
14 119 
14 122 
14 123 
14 126 
14 128 
14 130 
14 131 
14 133 
14 136 
14 137 
14 140 
14 141 
14 144 
15 16 
15 74 
15 76 
15 77 
15 79 
15 81 
15 84 
15 85 
15 88 
15 90 
15 91 
15 93 
15 95 
15 98 
15 100 
15 101 
15 104 
15 106 
15 108 
15 110 
15 111 
15 113 
15 115 
15 117 
15 120 
15 121 
15 123 
15 126 
15 128 
15 129 
15 131 
15 134 
15 135 
15 138 
15 140 
15 141 
15 143 
16 73 
16 75 
16 78 
16 80 
16 82 
16 83 
16 86 
16 87 
16 89 
16 92 
16 94 
16 96 
16 97 
16 99 
16 102 
16 103 
16 105 
16 107 
16 109 
16 112 
16 114 
16 116 
16 118 
16 119 
16 122 
16 124 
16 125 
16 127 
16 130 
16 132 
16 133 
16 136 
16 137 
16 139 
16 142 
16 144 
17 18 
17 73 
17 75 
17 77 
17 79 
17 82 
17 84 
17 86 
17 88 
17 90 
17 91 
17 93 
17 95 
17 97 
17 100 
17 102 
17 103 
17 106 
17 107 
17 109 
17 111 
17 114 
17 116 
17 118 
17 119 
17 121 
17 123 
17 126 
17 127 
17 129 
17 132 
17 133 
17 136 
17 138 
17 140 
17 141 
17 144 
18 74 
18 76 
18 78 
18 80 
18 81 
18 83 
18 85 
18 87 
18 89 
18 92 
18 94 
18 96 
18 98 
18 99 
18 101 
18 104 
18 105 
18 108 
18 110 
18 112 
18 113 
18 115 
18 117 
18 120 
18 122 
18 124 
18 125 
18 128 
18 130 
18 131 
18 134 
18 135 
18 137 
18 139 
18 142 
18 143 
19 20 
19 73 
19 75 
19 77 
19 80 
19 81 
19 84 
19 86 
19 87 
19 90 
19 92 
19 93 
19 96 
19 98 
19 100 
19 102 
19 103 
19 105 
19 107 
19 110 
19 112 
19 114 
19 115 
19 118 
19 120 
19 121 
19 124 
19 125 
19 128 
19 129 
19 132 
19 134 
19 135 
19 138 
19 139 
19 141 
19 143 
20 74 
20 76 
20 78 
20 79 
20 82 
20 83 
20 85 
20 88 
20 89 
20 91 
20 94 
20 95 
20 97 
20 99 
20 101 
20 104 
20 106 
20 108 
20 109 
20 111 
20 113 
20 116 
20 117 
20 119 
20 122 
20 123 
20 126 
20 127 
20 130 
20 131 
20 133 
20 136 
20 137 
20 140 
20 142 
20 144 
21 22 
21 74 
21 75 
21 78 
21 79 
21 82 
21 84 
21 86 
21 88 
21 90 
21 91 
21 93 
21 96 
21 97 
21 100 
21 102 
21 104 
21 105 
21 107 
21 109 
21 112 
21 113 
21 115 
21 117 
21 119 
21 122 
21 124 
21 126 
21 128 
21 130 
21 131 
21 134 
21 136 
21 137 
21 139 
21 141 
21 143 
22 73 
22 76 
22 77 
22 80 
22 81 
22 83 
22 85 
22 87 
22 89 
22 92 
22 94 
22 95 
22 98 
22 99 
22 101 
22 103 
22 106 
22 108 
22 110 
22 111 
22 114 
22 116 
22 118 
22 120 
22 121 
22 123 
22 125 
22 127 
22 129 
22 132 
22 133 
22 135 
22 138 
22 140 
22 142 
22 144 
23 24 
23 74 
23 76 
23 78 
23 80 
23 81 
23 83 
23 86 
23 88 
23 90 
23 91 
23 94 
23 96 
23 98 
23 100 
23 102 
23 104 
23 105 
23 107 
23 110 
23 112 
23 113 
23 116 
23 118 
23 120 
23 122 
23 123 
23 126 
23 128 
23 129 
23 132 
23 133 
23 136 
23 138 
23 140 
23 142 
23 144 
24 73 
24 75 
24 77 
24 79 
24 82 
24 84 
24 85 
24 87 
24 89 
24 92 
24 93 
24 95 
24 97 
24 99 
24 101 
24 103 
24 106 
24 108 
24 109 
24 111 
24 114 
24 115 
24 117 
24 119 
24 121 
24 124 
24 125 
24 127 
24 130 
24 131 
24 134 
24 135 
24 137 
24 139 
24 141 
24 143 
25 26 
25 73 
25 75 
25 78 
25 79 
25 82 
25 83 
25 86 
25 88 
25 90 
25 92 
25 93 
25 96 
25 98 
25 99 
25 101 
25 104 
25 106 
25 107 
25 110 
25 111 
25 113 
25 115 
25 117 
25 119 
25 122 
25 124 
25 125 
25 127 
25 129 
25 132 
25 133 
25 135 
25 138 
25 140 
25 142 
25 143 
26 74 
26 76 
26 77 
26 80 
26 81 
26 84 
26 85 
26 87 
26 89 
26 91 
26 94 
26 95 
26 97 
26 100 
26 102 
26 103 
26 105 
26 108 
26 109 
26 112 
26 114 
26 116 
26 118 
26 120 
26 121 
26 123 
26 126 
26 128 
26 130 
26 131 
26 134 
26 136 
26 137 
26 139 
26 141 
26 144 
27 28 
27 74 
27 76 
27 78 
27 80 
27 82 
27 84 
27 86 
27 88 
27 89 
27 92 
27 93 
27 95 
27 98 
27 99 
27 102 
27 103 
27 106 
27 108 
27 110 
27 112 
27 114 
27 115 
27 117 
27 120 
27 122 
27 124 
27 126 
27 127 
27 130 
27 132 
27 134 
27 136 
27 138 
27 140 
27 141 
27 144 
28 73 
28 75 
28 77 
28 79 
28 81 
28 83 
28 85 
28 87 
28 90 
28 91 
28 94 
28 96 
28 97 
28 100 
28 101 
28 104 
28 105 
28 107 
28 109 
28 111 
28 113 
28 116 
28 118 
28 119 
28 121 
28 123 
28 125 
28 128 
28 129 
28 131 
28 133 
28 135 
28 137 
28 139 
28 142 
28 143 
29 30 
29 74 
29 75 
29 78 
29 79 
29 82 
29 84 
29 86 
29 87 
29 89 
29 92 
29 94 
29 95 
29 98 
29 100 
29 101 
29 104 
29 105 
29 107 
29 109 
29 112 
29 113 
29 115 
29 118 
29 120 
29 121 
29 123 
29 125 
29 127 
29 130 
29 131 
29 133 
29 135 
29 138 
29 140 
29 141 
29 144 
30 73 
30 76 
30 77 
30 80 
30 81 
30 83 
30 85 
30 88 
30 90 
30 91 
30 93 
30 96 
30 97 
30 99 
30 102 
30 103 
30 106 
30 108 
30 110 
30 111 
30 114 
30 116 
30 117 
30 119 
30 122 
30 124 
30 126 
30 128 
30 129 
30 132 
30 134 
30 136 
30 137 
30 139 
30 142 
30 143 
31 32 
31 73 
31 75 
31 78 
31 80 
31 81 
31 84 
31 85 
31 87 
31 89 
31 91 
31 94 
31 96 
31 98 
31 100 
31 102 
31 104 
31 106 
31 108 
31 109 
31 111 
31 114 
31 115 
31 117 
31 119 
31 122 
31 124 
31 125 
31 128 
31 129 
31 131 
31 133 
31 136 
31 138 
31 140 
31 141 
31 144 
32 74 
32 76 
32 77 
32 79 
32 82 
32 83 
32 86 
32 88 
32 90 
32 92 
32 93 
32 95 
32 97 
32 99 
32 101 
32 103 
32 105 
32 107 
32 110 
32 112 
32 113 
32 116 
32 118 
32 120 
32 121 
32 123 
32 126 
32 127 
32 130 
32 132 
32 134 
32 135 
32 137 
32 139 
32 142 
32 143 
33 34 
33 73 
33 75 
33 77 
33 79 
33 82 
33 83 
33 86 
33 87 
33 89 
33 91 
33 93 
33 95 
33 98 
33 100 
33 102 
33 103 
33 106 
33 108 
33 110 
33 112 
33 113 
33 116 
33 117 
33 120 
33 122 
33 123 
33 125 
33 128 
33 130 
33 131 
33 133 
33 136 
33 138 
33 139 
33 142 
33 143 
34 74 
34 76 
34 78 
34 80 
34 81 
34 84 
34 85 
34 88 
34 90 
34 92 
34 94 
34 96 
34 97 
34 99 
34 101 
34 104 
34 105 
34 107 
34 109 
34 111 
34 114 
34 115 
34 118 
34 119 
34 121 
34 124 
34 126 
34 127 
34 129 
34 132 
34 134 
34 135 
34 137 
34 140 
34 141 
34 144 
35 36 
35 73 
35 76 
35 77 
35 79 
35 81 
35 83 
35 85 
35 88 
35 90 
35 92 
35 93 
35 95 
35 97 
35 99 
35 102 
35 104 
35 105 
35 107 
35 109 
35 112 
35 114 
35 116 
35 117 
35 120 
35 122 
35 124 
35 125 
35 128 
35 130 
35 131 
35 133 
35 135 
35 138 
35 140 
35 141 
35 144 
36 74 
36 75 
36 78 
36 80 
36 82 
36 84 
36 86 
36 87 
36 89 
36 91 
36 94 
36 96 
36 98 
36 100 
36 101 
36 103 
36 106 
36 108 
36 110 
36 111 
36 113 
36 115 
36 118 
36 119 
36 121 
36 123 
36 126 
36 127 
36 129 
36 132 
36 134 
36 136 
36 137 
36 139 
36 142 
36 143 
37 38 
37 73 
37 75 
37 77 
37 79 
37 81 
37 84 
37 86 
37 88 
37 89 
37 92 
37 94 
37 95 
37 98 
37 100 
37 101 
37 103 
37 105 
37 108 
37 109 
37 112 
37 113 
37 116 
37 117 
37 119 
37 122 
37 124 
37 126 
37 128 
37 129 
37 132 
37 134 
37 135 
37 137 
37 140 
37 142 
37 144 
38 74 
38 76 
38 78 
38 80 
38 82 
38 83 
38 85 
38 87 
38 90 
38 91 
38 93 
38 96 
38 97 
38 99 
38 102 
38 104 
38 106 
38 107 
38 110 
38 111 
38 114 
38 115 
38 118 
38 120 
38 121 
38 123 
38 125 
38 127 
38 130 
38 131 
38 133 
38 136 
38 138 
38 139 
38 141 
38 143 
39 40 
39 73 
39 76 
39 77 
39 79 
39 82 
39 84 
39 85 
39 88 
39 89 
39 91 
39 94 
39 96 
39 98 
39 100 
39 102 
39 103 
39 105 
39 107 
39 110 
39 111 
39 114 
39 115 
39 118 
39 120 
39 122 
39 124 
39 126 
39 127 
39 130 
39 131 
39 133 
39 135 
39 137 
39 140 
39 142 
39 143 
40 74 
40 75 
40 78 
40 80 
40 81 
40 83 
40 86 
40 87 
40 90 
40 92 
40 93 
40 95 
40 97 
40 99 
40 101 
40 104 
40 106 
40 108 
40 109 
40 112 
40 113 
40 116 
40 117 
40 119 
40 121 
40 123 
40 125 
40 128 
40 129 
40 132 
40 134 
40 136 
40 138 
40 139 
40 141 
40 144 
41 42 
41 73 
41 76 
41 77 
41 80 
41 82 
41 84 
41 85 
41 87 
41 90 
41 92 
41 93 
41 95 
41 97 
41 100 
41 101 
41 104 
41 105 
41 108 
41 110 
41 112 
41 113 
41 115 
41 118 
41 119 
41 122 
41 124 
41 126 
41 127 
41 129 
41 131 
41 133 
41 136 
41 138 
41 139 
41 142 
41 144 
42 74 
42 75 
42 78 
42 79 
42 81 
42 83 
42 86 
42 88 
42 89 
42 91 
42 94 
42 96 
42 98 
42 99 
42 102 
42 103 
42 106 
42 107 
42 109 
42 111 
42 114 
42 116 
42 117 
42 120 
42 121 
42 123 
42 125 
42 128 
42 130 
42 132 
42 134 
42 135 
42 137 
42 140 
42 141 
42 143 
43 44 
43 74 
43 75 
43 77 
43 79 
43 81 
43 83 
43 86 
43 88 
43 89 
43 91 
43 94 
43 95 
43 97 
43 99 
43 102 
43 104 
43 105 
43 108 
43 110 
43 112 
43 114 
43 115 
43 118 
43 119 
43 121 
43 124 
43 125 
43 127 
43 129 
43 131 
43 134 
43 136 
43 138 
43 140 
43 142 
43 143 
44 73 
44 76 
44 78 
44 80 
44 82 
44 84 
44 85 
44 87 
44 90 
44 92 
44 93 
44 96 
44 98 
44 100 
44 101 
44 103 
44 106 
44 107 
44 109 
44 111 
44 113 
44 116 
44 117 
44 120 
44 122 
44 123 
44 126 
44 128 
44 130 
44 132 
44 133 
44 135 
44 137 
44 139 
44 141 
44 144 
45 46 
45 74 
45 76 
45 77 
45 79 
45 82 
45 84 
45 86 
45 87 
45 90 
45 92 
45 94 
45 96 
45 97 
45 100 
45 101 
45 104 
45 106 
45 108 
45 109 
45 111 
45 114 
45 116 
45 118 
45 120 
45 122 
45 124 
45 125 
45 128 
45 130 
45 132 
45 134 
45 136 
45 138 
45 140 
45 142 
45 143 
46 73 
46 75 
46 78 
46 80 
46 81 
46 83 
46 85 
46 88 
46 89 
46 91 
46 93 
46 95 
46 98 
46 99 
46 102 
46 103 
46 105 
46 107 
46 110 
46 112 
46 113 
46 115 
46 117 
46 119 
46 121 
46 123 
46 126 
46 127 
46 129 
46 131 
46 133 
46 135 
46 137 
46 139 
46 141 
46 144 
47 48 
47 74 
47 76 
47 77 
47 79 
47 81 
47 84 
47 85 
47 88 
47 89 
47 91 
47 93 
47 96 
47 98 
47 99 
47 101 
47 103 
47 106 
47 107 
47 109 
47 112 
47 113 
47 115 
47 118 
47 119 
47 121 
47 124 
47 125 
47 128 
47 130 
47 132 
47 133 
47 136 
47 138 
47 139 
47 142 
47 144 
48 73 
48 75 
48 78 
48 80 
48 82 
48 83 
48 86 
48 87 
48 90 
48 92 
48 94 
48 95 
48 97 
48 100 
48 102 
48 104 
48 105 
48 108 
48 110 
48 111 
48 114 
48 116 
48 117 
48 120 
48 122 
48 123 
48 126 
48 127 
48 129 
48 131 
48 134 
48 135 
48 137 
48 140 
48 141 
48 143 
49 50 
49 73 
49 76 
49 78 
49 79 
49 82 
49 83 
49 86 
49 87 
49 90 
49 91 
49 94 
49 95 
49 98 
49 99 
49 101 
49 103 
49 105 
49 107 
49 109 
49 111 
49 114 
49 115 
49 117 
49 120 
49 121 
49 124 
49 126 
49 128 
49 129 
49 131 
49 134 
49 136 
49 138 
49 139 
49 142 
49 144 
50 74 
50 75 
50 77 
50 80 
50 81 
50 84 
50 85 
50 88 
50 89 
50 92 
50 93 
50 96 
50 97 
50 100 
50 102 
50 104 
50 106 
50 108 
50 110 
50 112 
50 113 
50 116 
50 118 
50 119 
50 122 
50 123 
50 125 
50 127 
50 130 
50 132 
50 133 
50 135 
50 137 
50 140 
50 141 
50 143 
51 52 
51 73 
51 75 
51 78 
51 79 
51 81 
51 83 
51 85 
51 87 
51 89 
51 92 
51 93 
51 95 
51 97 
51 100 
51 102 
51 104 
51 106 
51 107 
51 110 
51 111 
51 113 
51 115 
51 118 
51 120 
51 121 
51 124 
51 126 
51 128 
51 130 
51 132 
51 134 
51 136 
51 137 
51 140 
51 142 
51 144 
52 74 
52 76 
52 77 
52 80 
52 82 
52 84 
52 86 
52 88 
52 90 
52 91 
52 94 
52 96 
52 98 
52 99 
52 101 
52 103 
52 105 
52 108 
52 109 
52 112 
52 114 
52 116 
52 117 
52 119 
52 122 
52 123 
52 125 
52 127 
52 129 
52 131 
52 133 
52 135 
52 138 
52 139 
52 141 
52 143 
53 54 
53 74 
53 75 
53 77 
53 79 
53 82 
53 83 
53 85 
53 87 
53 89 
53 91 
53 93 
53 96 
53 98 
53 99 
53 102 
53 104 
53 105 
53 108 
53 109 
53 111 
53 113 
53 116 
53 118 
53 120 
53 122 
53 124 
53 126 
53 127 
53 129 
53 132 
53 134 
53 135 
53 138 
53 139 
53 141 
53 144 
54 73 
54 76 
54 78 
54 80 
54 81 
54 84 
54 86 
54 88 
54 90 
54 92 
54 94 
54 95 
54 97 
54 100 
54 101 
54 103 
54 106 
54 107 
54 110 
54 112 
54 114 
54 115 
54 117 
54 119 
54 121 
54 123 
54 125 
54 128 
54 130 
54 131 
54 133 
54 136 
54 137 
54 140 
54 142 
54 143 
55 56 
55 74 
55 76 
55 77 
55 79 
55 82 
55 83 
55 85 
55 87 
55 90 
55 92 
55 94 
55 96 
55 98 
55 100 
55 102 
55 103 
55 106 
55 107 
55 110 
55 112 
55 113 
55 116 
55 117 
55 119 
55 121 
55 124 
55 125 
55 127 
55 129 
55 131 
55 134 
55 136 
55 137 
55 140 
55 141 
55 144 
56 73 
56 75 
56 78 
56 80 
56 81 
56 84 
56 86 
56 88 
56 89 
56 91 
56 93 
56 95 
56 97 
56 99 
56 101 
56 104 
56 105 
56 108 
56 109 
56 111 
56 114 
56 115 
56 118 
56 120 
56 122 
56 123 
56 126 
56 128 
56 130 
56 132 
56 133 
56 135 
56 138 
56 139 
56 142 
56 143 
57 58 
57 74 
57 75 
57 77 
57 80 
57 81 
57 83 
57 86 
57 88 
57 90 
57 92 
57 94 
57 96 
57 97 
57 100 
57 102 
57 103 
57 106 
57 108 
57 109 
57 111 
57 113 
57 115 
57 117 
57 120 
57 121 
57 124 
57 126 
57 127 
57 130 
57 131 
57 133 
57 135 
57 138 
57 139 
57 142 
57 144 
58 73 
58 76 
58 78 
58 79 
58 82 
58 84 
58 85 
58 87 
58 89 
58 91 
58 93 
58 95 
58 98 
58 99 
58 101 
58 104 
58 105 
58 107 
58 110 
58 112 
58 114 
58 116 
58 118 
58 119 
58 122 
58 123 
58 125 
58 128 
58 129 
58 132 
58 134 
58 136 
58 137 
58 140 
58 141 
58 143 
59 60 
59 73 
59 76 
59 78 
59 79 
59 81 
59 83 
59 86 
59 88 
59 89 
59 92 
59 93 
59 96 
59 98 
59 100 
59 101 
59 104 
59 106 
59 108 
59 109 
59 112 
59 114 
59 116 
59 118 
59 120 
59 121 
59 124 
59 126 
59 127 
59 129 
59 131 
59 133 
59 136 
59 137 
59 139 
59 141 
59 143 
60 74 
60 75 
60 77 
60 80 
60 82 
60 84 
60 85 
60 87 
60 90 
60 91 
60 94 
60 95 
60 97 
60 99 
60 102 
60 103 
60 105 
60 107 
60 110 
60 111 
60 113 
60 115 
60 117 
60 119 
60 122 
60 123 
60 125 
60 128 
60 130 
60 132 
60 134 
60 135 
60 138 
60 140 
60 142 
60 144 
61 62 
61 73 
61 75 
61 78 
61 79 
61 81 
61 84 
61 85 
61 87 
61 90 
61 91 
61 94 
61 96 
61 97 
61 99 
61 101 
61 103 
61 105 
61 108 
61 110 
61 112 
61 113 
61 116 
61 117 
61 120 
61 121 
61 124 
61 126 
61 127 
61 130 
61 132 
61 133 
61 136 
61 138 
61 140 
61 141 
61 143 
62 74 
62 76 
62 77 
62 80 
62 82 
62 83 
62 86 
62 88 
62 89 
62 92 
62 93 
62 95 
62 98 
62 100 
62 102 
62 104 
62 106 
62 107 
62 109 
62 111 
62 114 
62 115 
62 118 
62 119 
62 122 
62 123 
62 125 
62 128 
62 129 
62 131 
62 134 
62 135 
62 137 
62 139 
62 142 
62 144 
63 64 
63 73 
63 76 
63 77 
63 79 
63 81 
63 83 
63 86 
63 87 
63 89 
63 91 
63 94 
63 96 
63 97 
63 100 
63 101 
63 104 
63 106 
63 107 
63 110 
63 112 
63 114 
63 115 
63 117 
63 119 
63 122 
63 123 
63 126 
63 127 
63 130 
63 132 
63 134 
63 135 
63 138 
63 139 
63 141 
63 144 
64 74 
64 75 
64 78 
64 80 
64 82 
64 84 
64 85 
64 88 
64 90 
64 92 
64 93 
64 95 
64 98 
64 99 
64 102 
64 103 
64 105 
64 108 
64 109 
64 111 
64 113 
64 116 
64 118 
64 120 
64 121 
64 124 
64 125 
64 128 
64 129 
64 131 
64 133 
64 136 
64 137 
64 140 
64 142 
64 143 
65 66 
65 74 
65 76 
65 78 
65 79 
65 81 
65 84 
65 86 
65 87 
65 89 
65 92 
65 94 
65 95 
65 97 
65 99 
65 102 
65 103 
65 106 
65 107 
65 110 
65 111 
65 113 
65 116 
65 118 
65 119 
65 122 
65 124 
65 126 
65 128 
65 129 
65 131 
65 133 
65 135 
65 138 
65 139 
65 141 
65 143 
66 73 
66 75 
66 77 
66 80 
66 82 
66 83 
66 85 
66 88 
66 90 
66 91 
66 93 
66 96 
66 98 
66 100 
66 101 
66 104 
66 105 
66 108 
66 109 
66 112 
66 114 
66 115 
66 117 
66 120 
66 121 
66 123 
66 125 
66 127 
66 130 
66 132 
66 134 
66 136 
66 137 
66 140 
66 142 
66 144 
67 68 
67 74 
67 76 
67 78 
67 79 
67 81 
67 84 
67 86 
67 87 
67 90 
67 91 
67 93 
67 95 
67 98 
67 100 
67 102 
67 104 
67 105 
67 108 
67 110 
67 111 
67 114 
67 116 
67 117 
67 119 
67 121 
67 124 
67 125 
67 127 
67 130 
67 132 
67 133 
67 135 
67 137 
67 139 
67 142 
67 144 
68 73 
68 75 
68 77 
68 80 
68 82 
68 83 
68 85 
68 88 
68 89 
68 92 
68 94 
68 96 
68 97 
68 99 
68 101 
68 103 
68 106 
68 107 
68 109 
68 112 
68 113 
68 115 
68 118 
68 120 
68 122 
68 123 
68 126 
68 128 
68 129 
68 131 
68 134 
68 136 
68 138 
68 140 
68 141 
68 143 
69 70 
69 74 
69 75 
69 78 
69 80 
69 81 
69 83 
69 85 
69 87 
69 90 
69 91 
69 93 
69 95 
69 98 
69 100 
69 101 
69 103 
69 106 
69 107 
69 109 
69 112 
69 114 
69 116 
69 118 
69 119 
69 122 
69 124 
69 126 
69 127 
69 130 
69 131 
69 134 
69 135 
69 138 
69 140 
69 142 
69 143 
70 73 
70 76 
70 77 
70 79 
70 82 
70 84 
70 86 
70 88 
70 89 
70 92 
70 94 
70 96 
70 97 
70 99 
70 102 
70 104 
70 105 
70 108 
70 110 
70 111 
70 113 
70 115 
70 117 
70 120 
70 121 
70 123 
70 125 
70 128 
70 129 
70 132 
70 133 
70 136 
70 137 
70 139 
70 141 
70 144 
71 72 
71 74 
71 75 
71 78 
71 79 
71 82 
71 83 
71 85 
71 88 
71 90 
71 91 
71 94 
71 95 
71 97 
71 100 
71 101 
71 103 
71 106 
71 108 
71 110 
71 112 
71 114 
71 115 
71 118 
71 120 
71 122 
71 124 
71 125 
71 128 
71 129 
71 132 
71 133 
71 135 
71 137 
71 139 
71 141 
71 144 
72 73 
72 76 
72 77 
72 80 
72 81 
72 84 
72 86 
72 87 
72 89 
72 92 
72 93 
72 96 
72 98 
72 99 
72 102 
72 104 
72 105 
72 107 
72 109 
72 111 
72 113 
72 116 
72 117 
72 119 
72 121 
72 123 
72 126 
72 127 
72 130 
72 131 
72 134 
72 136 
72 138 
72 140 
72 142 
72 143 
73 74 
75 76 
77 78 
79 80 
81 82 
83 84 
85 86 
87 88 
89 90 
91 92 
93 94 
95 96 
97 98 
99 100 
101 102 
103 104 
105 106 
107 108 
109 110 
111 112 
113 114 
115 116 
117 118 
119 120 
121 122 
123 124 
125 126 
127 128 
129 130 
131 132 
133 134 
135 136 
137 138 
139 140 
141 142 
143 144 
